attachment/milp/4-graphs/shortest-path.dat
data;

set Nodes := A B C D E F G H I;
param Start := A;
param Finish := I;

param Weight :=
	A B 5
	B C 7
	A D 3
	B E 4
	C F 6
	D E 6
	E F 4
	D G 6
	E H 2
	F I 8
	G H 5
	H I 9
	B D 1
	C E 8
	E G 7
	F H 2
	;

end;
