attachment/milp/4-graphs/shortest-path.log
GLPSOL: GLPK LP/MIP Solver, v4.65
Parameter(s) specified in the command line:
 -m shortest-path.mod -d shortest-path.dat --log shortest-path.log
Reading model section from shortest-path.mod...
27 lines were read
Reading data section from shortest-path.dat...
26 lines were read
Checking (line 4)...
Generating Material_Balance...
Generating Total_Weight...
Model has been successfully generated
GLPK Integer Optimizer, v4.65
10 rows, 81 columns, 225 non-zeros
81 integer variables, all of which are binary
Preprocessing...
9 rows, 72 columns, 144 non-zeros
72 integer variables, all of which are binary
Scaling...
 A: min|aij| =  1.000e+00  max|aij| =  1.000e+00  ratio =  1.000e+00
Problem data seem to be well scaled
Constructing initial basis...
Size of triangular part is 8
Solving LP relaxation...
GLPK Simplex Optimizer, v4.65
9 rows, 72 columns, 144 non-zeros
      0: obj =  -9.999900000e+04 inf =   1.000e+00 (1)
      8: obj =   9.999900000e+04 inf =   0.000e+00 (0)
*    17: obj =   1.900000000e+01 inf =   0.000e+00 (0)
OPTIMAL LP SOLUTION FOUND
Integer optimization begins...
Long-step dual simplex will be used
+    17: mip =     not found yet >=              -inf        (1; 0)
+    17: >>>>>   1.900000000e+01 >=   1.900000000e+01   0.0% (1; 0)
+    17: mip =   1.900000000e+01 >=     tree is empty   0.0% (0; 1)
INTEGER OPTIMAL SOLUTION FOUND
Time used:   0.0 secs
Memory used: 0.2 Mb (261768 bytes)
Distance A-I: 19
A->D (3)
B->E (4)
D->B (1)
E->H (2)
H->I (9)
Model has been successfully processed
